17	4
17	21	30	18	
0	0	0	0	0	3	2	3	4	
9	9	4	0	0	2	6	17	
7	2	0	2	9	3	9	11	14	
5	6	2	0	4	3	5	12	15	
6	1	0	7	0	3	7	8	17	
100	3	0	0	0	1	17	
75	0	10	10	3	1	13	
125	6	0	0	0	1	17	
225	0	9	9	0	1	10	
150	8	1	0	4	2	17	17	
250	0	0	7	9	1	17	
175	0	6	0	3	1	17	
9	0	6	7	0	1	17	
9	0	0	5	5	2	17	17	
1	6	0	0	10	1	16	
4	2	0	10	0	1	17	
0	0	0	0	0	0	
